peakDumbCharging = 22200; 
Machine = anon_enum(16); 
machineSpeed = [3700,3700,3700,3700,3700,3700,3700,3700,3700,3700,3700,3700,3700,3700,3700,3700]; 
machineLoad = [3700,3700,3700,3700,3700,3700,3700,3700,3700,3700,3700,3700,3700,3700,3700,3700]; 
Car = anon_enum(23); 
demandCar = [4680,9360,26600,2080,7080,11560,5040,20440,3480,6360,12560,8800,20840,5280,6760,14600,13600,1400,35520,30440,28800,28560,30040]; 
arrivalCar = [86,81,70,69,66,65,64,64,62,59,59,54,50,50,46,46,44,39,37,36,33,33,32]; 
departureCar = [88,85,79,71,69,69,67,71,64,62,64,60,63,53,51,52,52,41,63,61,45,67,49]; 
